p tw 79 86
1 2
2 13
3 4
3 17
4 5
5 6
6 7
7 8
8 9
9 10
9 17
10 11
11 12
12 14
13 24
14 15
15 16
16 17
16 19
17 18
18 76
19 20
20 21
20 25
21 22
22 23
23 25
24 35
25 26
26 27
26 30
27 28
28 29
29 30
30 31
31 32
32 33
33 34
34 36
35 46
36 37
37 38
38 39
39 40
39 41
40 76
41 42
42 43
43 44
44 45
45 47
46 57
47 48
48 49
49 50
50 51
51 52
52 53
53 54
54 55
54 70
55 56
56 58
57 68
57 17
58 59
59 60
60 61
61 62
62 63
63 64
64 65
65 66
66 67
67 69
68 78
69 52
70 71
71 72
72 73
73 74
74 75
75 76
76 77
78 79
79 3
